p tw 155 32551 2 
1 3 
1 4 
1 5 
1 6 
1 7 
1 8 
1 9 
1 10 
1 11 
1 12 
1 13 
1 14 
1 15 
1 16 
1 17 
1 18 
1 19 
1 20 
1 21 
1 22 
1 23 
1 24 
1 25 
1 26 
1 27 
1 28 
1 29 
1 35 
1 47 
1 59 
1 69 
1 79 
1 89 
1 98 
1 105 
1 113 
1 121 
1 122 
1 123 
1 124 
1 125 
2 3 
2 4 
2 5 
2 6 
2 7 
2 8 
2 9 
2 10 
2 11 
2 12 
2 13 
2 14 
2 15 
2 16 
2 21 
2 30 
2 31 
2 32 
2 33 
2 34 
2 35 
2 36 
2 37 
2 38 
2 39 
2 40 
2 41 
2 42 
2 48 
2 60 
2 70 
2 80 
2 90 
2 99 
2 106 
2 114 
2 121 
2 126 
2 127 
2 128 
2 129 
3 4 
3 5 
3 6 
3 7 
3 8 
3 9 
3 10 
3 11 
3 12 
3 13 
3 14 
3 15 
3 17 
3 21 
3 30 
3 34 
3 43 
3 44 
3 45 
3 46 
3 47 
3 48 
3 49 
3 50 
3 51 
3 52 
3 53 
3 54 
3 59 
3 76 
3 85 
3 95 
3 104 
3 120 
3 131 
3 134 
3 138 
3 145 
3 150 
3 155 
4 5 
4 6 
4 7 
4 8 
4 9 
4 10 
4 11 
4 12 
4 13 
4 14 
4 15 
4 16 
4 19 
4 32 
4 43 
4 45 
4 55 
4 56 
4 57 
4 58 
4 59 
4 60 
4 61 
4 62 
4 63 
4 64 
4 65 
4 66 
4 67 
4 77 
4 78 
4 79 
4 80 
4 81 
4 82 
4 83 
4 84 
4 85 
4 86 
5 6 
5 7 
5 8 
5 9 
5 10 
5 11 
5 12 
5 13 
5 14 
5 15 
5 18 
5 23 
5 31 
5 37 
5 44 
5 50 
5 55 
5 62 
5 67 
5 68 
5 69 
5 70 
5 71 
5 72 
5 73 
5 74 
5 75 
5 76 
5 82 
5 91 
5 97 
5 108 
5 123 
5 126 
5 133 
5 134 
5 135 
5 136 
6 7 
6 8 
6 9 
6 10 
6 11 
6 12 
6 13 
6 14 
6 15 
6 20 
6 26 
6 31 
6 41 
6 46 
6 49 
6 56 
6 64 
6 74 
6 77 
6 85 
6 87 
6 88 
6 89 
6 90 
6 91 
6 92 
6 93 
6 94 
6 95 
6 100 
6 111 
6 118 
6 121 
6 136 
6 140 
6 148 
6 149 
7 8 
7 9 
7 10 
7 11 
7 12 
7 13 
7 14 
7 15 
7 18 
7 23 
7 33 
7 41 
7 45 
7 53 
7 57 
7 66 
7 72 
7 86 
7 87 
7 94 
7 96 
7 97 
7 98 
7 99 
7 100 
7 101 
7 102 
7 103 
7 104 
7 106 
7 120 
7 122 
7 142 
7 144 
7 151 
7 153 
8 9 
8 10 
8 11 
8 12 
8 13 
8 14 
8 15 
8 19 
8 22 
8 34 
8 37 
8 44 
8 51 
8 58 
8 64 
8 75 
8 80 
8 88 
8 93 
8 96 
8 101 
8 105 
8 106 
8 107 
8 108 
8 109 
8 110 
8 111 
8 112 
8 119 
8 125 
8 141 
8 144 
8 146 
8 150 
9 10 
9 11 
9 12 
9 13 
9 14 
9 15 
9 17 
9 20 
9 30 
9 38 
9 56 
9 58 
9 68 
9 69 
9 78 
9 81 
9 97 
9 101 
9 110 
9 113 
9 114 
9 115 
9 116 
9 117 
9 118 
9 119 
9 120 
9 128 
9 136 
9 142 
9 147 
9 152 
9 154 
9 155 
10 11 
10 12 
10 13 
10 14 
10 15 
10 22 
10 25 
10 36 
10 39 
10 47 
10 49 
10 57 
10 61 
10 68 
10 71 
10 81 
10 84 
10 87 
10 90 
10 107 
10 110 
10 115 
10 122 
10 126 
10 130 
10 131 
10 132 
10 135 
10 137 
10 140 
10 143 
10 144 
10 145 
11 12 
11 13 
11 14 
11 15 
11 24 
11 29 
11 38 
11 40 
11 48 
11 51 
11 55 
11 63 
11 72 
11 77 
11 84 
11 92 
11 100 
11 103 
11 105 
11 112 
11 115 
11 119 
11 123 
11 127 
11 132 
11 133 
11 137 
11 138 
11 139 
11 149 
11 151 
11 155 
12 13 
12 14 
12 15 
12 24 
12 26 
12 33 
12 40 
12 52 
12 53 
12 60 
12 61 
12 70 
12 73 
12 79 
12 83 
12 91 
12 92 
12 96 
12 109 
12 116 
12 117 
12 124 
12 130 
12 134 
12 138 
12 140 
12 141 
12 142 
12 143 
12 146 
12 147 
13 14 
13 15 
13 27 
13 28 
13 35 
13 39 
13 52 
13 54 
13 62 
13 65 
13 67 
13 74 
13 82 
13 93 
13 94 
13 102 
13 103 
13 107 
13 109 
13 113 
13 117 
13 127 
13 128 
13 130 
13 139 
13 145 
13 148 
13 150 
13 151 
13 152 
14 15 
14 25 
14 29 
14 32 
14 42 
14 43 
14 50 
14 65 
14 71 
14 73 
14 86 
14 88 
14 95 
14 99 
14 102 
14 108 
14 116 
14 118 
14 124 
14 125 
14 129 
14 131 
14 137 
14 139 
14 146 
14 149 
14 152 
14 153 
14 154 
15 27 
15 28 
15 36 
15 42 
15 46 
15 54 
15 63 
15 66 
15 75 
15 76 
15 78 
15 83 
15 89 
15 98 
15 104 
15 111 
15 112 
15 114 
15 129 
15 132 
15 133 
15 135 
15 141 
15 143 
15 147 
15 148 
15 153 
15 154 
16 17 
16 18 
16 19 
16 20 
16 21 
16 22 
16 23 
16 24 
16 25 
16 26 
16 27 
16 28 
16 29 
16 30 
16 31 
16 32 
16 33 
16 34 
16 35 
16 36 
16 37 
16 38 
16 39 
16 40 
16 41 
16 42 
16 43 
16 55 
16 56 
16 57 
16 58 
16 59 
16 60 
16 61 
16 62 
16 63 
16 64 
16 65 
16 66 
17 18 
17 19 
17 20 
17 21 
17 22 
17 23 
17 24 
17 25 
17 26 
17 27 
17 28 
17 29 
17 30 
17 38 
17 43 
17 44 
17 45 
17 46 
17 47 
17 48 
17 49 
17 50 
17 51 
17 52 
17 53 
17 54 
17 56 
17 69 
17 81 
17 101 
17 110 
17 128 
17 136 
17 142 
17 147 
17 152 
17 154 
17 155 
18 19 
18 20 
18 21 
18 22 
18 23 
18 24 
18 25 
18 26 
18 27 
18 28 
18 29 
18 31 
18 33 
18 44 
18 45 
18 55 
18 57 
18 67 
18 68 
18 69 
18 70 
18 71 
18 72 
18 73 
18 74 
18 75 
18 76 
18 87 
18 96 
18 97 
18 98 
18 99 
18 100 
18 101 
18 102 
18 103 
18 104 
19 20 
19 21 
19 22 
19 23 
19 24 
19 25 
19 26 
19 27 
19 28 
19 29 
19 32 
19 34 
19 44 
19 45 
19 58 
19 67 
19 77 
19 78 
19 79 
19 80 
19 81 
19 82 
19 83 
19 84 
19 85 
19 86 
19 88 
19 96 
19 105 
19 106 
19 107 
19 108 
19 109 
19 110 
19 111 
19 112 
20 21 
20 22 
20 23 
20 24 
20 25 
20 26 
20 27 
20 28 
20 29 
20 30 
20 31 
20 46 
20 56 
20 58 
20 68 
20 77 
20 78 
20 87 
20 88 
20 89 
20 90 
20 91 
20 92 
20 93 
20 94 
20 95 
20 97 
20 113 
20 114 
20 115 
20 116 
20 117 
20 118 
20 119 
20 120 
21 22 
21 23 
21 24 
21 25 
21 26 
21 27 
21 28 
21 29 
21 34 
21 48 
21 59 
21 60 
21 70 
21 76 
21 80 
21 85 
21 90 
21 95 
21 99 
21 104 
21 106 
21 114 
21 120 
21 121 
21 126 
21 127 
21 128 
21 129 
21 131 
21 134 
21 138 
21 145 
21 150 
21 155 
22 23 
22 24 
22 25 
22 26 
22 27 
22 28 
22 29 
22 36 
22 37 
22 49 
22 51 
22 61 
22 64 
22 71 
22 75 
22 80 
22 81 
22 87 
22 93 
22 101 
22 107 
22 115 
22 119 
22 122 
22 125 
22 126 
22 130 
22 131 
22 132 
22 141 
22 144 
22 146 
22 150 
23 24 
23 25 
23 26 
23 27 
23 28 
23 29 
23 37 
23 41 
23 50 
23 53 
23 62 
23 66 
23 72 
23 82 
23 86 
23 91 
23 94 
23 97 
23 106 
23 108 
23 120 
23 122 
23 123 
23 126 
23 133 
23 134 
23 135 
23 136 
23 142 
23 144 
23 151 
23 153 
24 25 
24 26 
24 27 
24 28 
24 29 
24 33 
24 38 
24 51 
24 52 
24 61 
24 63 
24 70 
24 72 
24 77 
24 83 
24 92 
24 100 
24 105 
24 109 
24 115 
24 116 
24 124 
24 127 
24 133 
24 134 
24 137 
24 138 
24 139 
24 140 
24 141 
24 142 
25 26 
25 27 
25 28 
25 29 
25 32 
25 39 
25 47 
25 50 
25 57 
25 65 
25 68 
25 73 
25 84 
25 88 
25 90 
25 99 
25 110 
25 116 
25 125 
25 131 
25 135 
25 137 
25 139 
25 140 
25 143 
25 144 
25 145 
25 149 
25 153 
25 154 
26 27 
26 28 
26 29 
26 40 
26 41 
26 49 
26 53 
26 60 
26 64 
26 73 
26 74 
26 79 
26 85 
26 91 
26 96 
26 100 
26 111 
26 117 
26 118 
26 121 
26 130 
26 136 
26 138 
26 140 
26 143 
26 146 
26 147 
26 148 
26 149 
27 28 
27 29 
27 35 
27 42 
27 52 
27 54 
27 62 
27 66 
27 67 
27 75 
27 83 
27 89 
27 93 
27 102 
27 104 
27 107 
27 111 
27 114 
27 117 
27 128 
27 132 
27 133 
27 139 
27 143 
27 145 
27 148 
27 151 
27 154 
28 29 
28 36 
28 39 
28 46 
28 54 
28 63 
28 65 
28 74 
28 76 
28 78 
28 82 
28 94 
28 98 
28 103 
28 109 
28 112 
28 113 
28 127 
28 129 
28 130 
28 135 
28 141 
28 147 
28 148 
28 150 
28 152 
28 153 
29 40 
29 42 
29 43 
29 48 
29 55 
29 71 
29 84 
29 86 
29 92 
29 95 
29 102 
29 103 
29 108 
29 112 
29 118 
29 119 
29 123 
29 124 
29 129 
29 132 
29 137 
29 146 
29 149 
29 151 
29 152 
29 155 
30 31 
30 32 
30 33 
30 34 
30 35 
30 36 
30 37 
30 38 
30 39 
30 40 
30 41 
30 42 
30 43 
30 44 
30 45 
30 46 
30 47 
30 48 
30 49 
30 50 
30 51 
30 52 
30 53 
30 54 
30 58 
30 68 
30 78 
30 97 
30 113 
30 114 
30 115 
30 116 
30 117 
30 118 
30 119 
30 120 
31 32 
31 33 
31 34 
31 35 
31 36 
31 37 
31 38 
31 39 
31 40 
31 41 
31 42 
31 44 
31 46 
31 55 
31 56 
31 67 
31 68 
31 69 
31 70 
31 71 
31 72 
31 73 
31 74 
31 75 
31 76 
31 77 
31 87 
31 88 
31 89 
31 90 
31 91 
31 92 
31 93 
31 94 
31 95 
32 33 
32 34 
32 35 
32 36 
32 37 
32 38 
32 39 
32 40 
32 41 
32 42 
32 45 
32 50 
32 65 
32 67 
32 73 
32 77 
32 78 
32 79 
32 80 
32 81 
32 82 
32 83 
32 84 
32 85 
32 86 
32 88 
32 99 
32 116 
32 125 
32 131 
32 139 
32 149 
32 153 
32 154 
33 34 
33 35 
33 36 
33 37 
33 38 
33 39 
33 40 
33 41 
33 42 
33 45 
33 52 
33 57 
33 61 
33 70 
33 83 
33 87 
33 92 
33 96 
33 97 
33 98 
33 99 
33 100 
33 101 
33 102 
33 103 
33 104 
33 109 
33 116 
33 124 
33 134 
33 140 
33 141 
33 142 
34 35 
34 36 
34 37 
34 38 
34 39 
34 40 
34 41 
34 42 
34 44 
34 58 
34 59 
34 76 
34 85 
34 88 
34 95 
34 96 
34 104 
34 105 
34 106 
34 107 
34 108 
34 109 
34 110 
34 111 
34 112 
34 120 
34 131 
34 134 
34 138 
34 145 
34 150 
34 155 
35 36 
35 37 
35 38 
35 39 
35 40 
35 41 
35 42 
35 47 
35 52 
35 59 
35 62 
35 67 
35 69 
35 79 
35 89 
35 93 
35 98 
35 102 
35 105 
35 107 
35 113 
35 117 
35 121 
35 122 
35 123 
35 124 
35 125 
35 128 
35 139 
35 145 
35 148 
35 151 
36 37 
36 38 
36 39 
36 40 
36 41 
36 42 
36 46 
36 49 
36 61 
36 63 
36 71 
36 76 
36 78 
36 81 
36 87 
36 98 
36 107 
36 112 
36 115 
36 122 
36 126 
36 129 
36 130 
36 131 
36 132 
36 135 
36 141 
36 147 
36 148 
36 153 
37 38 
37 39 
37 40 
37 41 
37 42 
37 50 
37 51 
37 62 
37 64 
37 75 
37 80 
37 82 
37 91 
37 93 
37 97 
37 101 
37 108 
37 119 
37 123 
37 125 
37 126 
37 133 
37 134 
37 135 
37 136 
37 141 
37 144 
37 146 
37 150 
38 39 
38 40 
38 41 
38 42 
38 51 
38 56 
38 63 
38 69 
38 72 
38 77 
38 81 
38 100 
38 101 
38 105 
38 110 
38 115 
38 127 
38 128 
38 133 
38 136 
38 137 
38 138 
38 139 
38 142 
38 147 
38 152 
38 154 
38 155 
39 40 
39 41 
39 42 
39 47 
39 54 
39 57 
39 65 
39 68 
39 74 
39 82 
39 84 
39 90 
39 94 
39 103 
39 109 
39 110 
39 113 
39 127 
39 130 
39 135 
39 137 
39 140 
39 143 
39 144 
39 145 
39 150 
39 152 
40 41 
40 42 
40 48 
40 53 
40 55 
40 60 
40 73 
40 79 
40 84 
40 91 
40 92 
40 96 
40 103 
40 112 
40 117 
40 119 
40 123 
40 130 
40 132 
40 138 
40 143 
40 146 
40 147 
40 149 
40 151 
40 155 
41 42 
41 49 
41 53 
41 64 
41 66 
41 72 
41 74 
41 85 
41 86 
41 94 
41 100 
41 106 
41 111 
41 118 
41 120 
41 121 
41 122 
41 136 
41 140 
41 142 
41 144 
41 148 
41 149 
41 151 
41 153 
42 43 
42 54 
42 66 
42 71 
42 75 
42 83 
42 86 
42 89 
42 95 
42 102 
42 104 
42 108 
42 111 
42 114 
42 118 
42 124 
42 129 
42 132 
42 133 
42 137 
42 143 
42 146 
42 152 
42 154 
43 44 
43 45 
43 46 
43 47 
43 48 
43 49 
43 50 
43 51 
43 52 
43 53 
43 54 
43 55 
43 56 
43 57 
43 58 
43 59 
43 60 
43 61 
43 62 
43 63 
43 64 
43 65 
43 66 
43 71 
43 86 
43 95 
43 102 
43 108 
43 118 
43 124 
43 129 
43 137 
43 146 
43 152 
44 45 
44 46 
44 47 
44 48 
44 49 
44 50 
44 51 
44 52 
44 53 
44 54 
44 55 
44 58 
44 67 
44 68 
44 69 
44 70 
44 71 
44 72 
44 73 
44 74 
44 75 
44 76 
44 88 
44 96 
44 105 
44 106 
44 107 
44 108 
44 109 
44 110 
44 111 
44 112 
45 46 
45 47 
45 48 
45 49 
45 50 
45 51 
45 52 
45 53 
45 54 
45 57 
45 67 
45 77 
45 78 
45 79 
45 80 
45 81 
45 82 
45 83 
45 84 
45 85 
45 86 
45 87 
45 96 
45 97 
45 98 
45 99 
45 100 
45 101 
45 102 
45 103 
45 104 
46 47 
46 48 
46 49 
46 50 
46 51 
46 52 
46 53 
46 54 
46 56 
46 63 
46 76 
46 77 
46 78 
46 87 
46 88 
46 89 
46 90 
46 91 
46 92 
46 93 
46 94 
46 95 
46 98 
46 112 
46 129 
46 135 
46 141 
46 147 
46 148 
46 153 
47 48 
47 49 
47 50 
47 51 
47 52 
47 53 
47 54 
47 57 
47 59 
47 68 
47 69 
47 79 
47 84 
47 89 
47 90 
47 98 
47 105 
47 110 
47 113 
47 121 
47 122 
47 123 
47 124 
47 125 
47 135 
47 137 
47 140 
47 143 
47 144 
47 145 
48 49 
48 50 
48 51 
48 52 
48 53 
48 54 
48 55 
48 60 
48 70 
48 80 
48 84 
48 90 
48 92 
48 99 
48 103 
48 106 
48 112 
48 114 
48 119 
48 121 
48 123 
48 126 
48 127 
48 128 
48 129 
48 132 
48 149 
48 151 
48 155 
49 50 
49 51 
49 52 
49 53 
49 54 
49 61 
49 64 
49 71 
49 74 
49 81 
49 85 
49 87 
49 100 
49 107 
49 111 
49 115 
49 118 
49 121 
49 122 
49 126 
49 130 
49 131 
49 132 
49 136 
49 140 
49 148 
49 149 
50 51 
50 52 
50 53 
50 54 
50 62 
50 65 
50 73 
50 82 
50 88 
50 91 
50 97 
50 99 
50 108 
50 116 
50 123 
50 125 
50 126 
50 131 
50 133 
50 134 
50 135 
50 136 
50 139 
50 149 
50 153 
50 154 
51 52 
51 53 
51 54 
51 63 
51 64 
51 72 
51 75 
51 77 
51 80 
51 93 
51 100 
51 101 
51 105 
51 115 
51 119 
51 125 
51 127 
51 133 
51 137 
51 138 
51 139 
51 141 
51 144 
51 146 
51 150 
52 53 
52 54 
52 61 
52 62 
52 67 
52 70 
52 83 
52 92 
52 93 
52 102 
52 107 
52 109 
52 116 
52 117 
52 124 
52 128 
52 134 
52 139 
52 140 
52 141 
52 142 
52 145 
52 148 
52 151 
53 54 
53 60 
53 66 
53 72 
53 73 
53 79 
53 86 
53 91 
53 94 
53 96 
53 106 
53 117 
53 120 
53 122 
53 130 
53 138 
53 142 
53 143 
53 144 
53 146 
53 147 
53 151 
53 153 
54 65 
54 66 
54 74 
54 75 
54 82 
54 83 
54 89 
54 94 
54 103 
54 104 
54 109 
54 111 
54 113 
54 114 
54 127 
54 130 
54 132 
54 133 
54 143 
54 150 
54 152 
54 154 
55 56 
55 57 
55 58 
55 59 
55 60 
55 61 
55 62 
55 63 
55 64 
55 65 
55 66 
55 67 
55 68 
55 69 
55 70 
55 71 
55 72 
55 73 
55 74 
55 75 
55 76 
55 84 
55 92 
55 103 
55 112 
55 119 
55 123 
55 132 
55 149 
55 151 
55 155 
56 57 
56 58 
56 59 
56 60 
56 61 
56 62 
56 63 
56 64 
56 65 
56 66 
56 69 
56 77 
56 81 
56 87 
56 88 
56 89 
56 90 
56 91 
56 92 
56 93 
56 94 
56 95 
56 101 
56 110 
56 128 
56 136 
56 142 
56 147 
56 152 
56 154 
56 155 
57 58 
57 59 
57 60 
57 61 
57 62 
57 63 
57 64 
57 65 
57 66 
57 68 
57 84 
57 87 
57 90 
57 96 
57 97 
57 98 
57 99 
57 100 
57 101 
57 102 
57 103 
57 104 
57 110 
57 135 
57 137 
57 140 
57 143 
57 144 
57 145 
58 59 
58 60 
58 61 
58 62 
58 63 
58 64 
58 65 
58 66 
58 68 
58 78 
58 88 
58 96 
58 97 
58 105 
58 106 
58 107 
58 108 
58 109 
58 110 
58 111 
58 112 
58 113 
58 114 
58 115 
58 116 
58 117 
58 118 
58 119 
58 120 
59 60 
59 61 
59 62 
59 63 
59 64 
59 65 
59 66 
59 69 
59 76 
59 79 
59 85 
59 89 
59 95 
59 98 
59 104 
59 105 
59 113 
59 120 
59 121 
59 122 
59 123 
59 124 
59 125 
59 131 
59 134 
59 138 
59 145 
59 150 
59 155 
60 61 
60 62 
60 63 
60 64 
60 65 
60 66 
60 70 
60 73 
60 79 
60 80 
60 90 
60 91 
60 96 
60 99 
60 106 
60 114 
60 117 
60 121 
60 126 
60 127 
60 128 
60 129 
60 130 
60 138 
60 143 
60 146 
60 147 
61 62 
61 63 
61 64 
61 65 
61 66 
61 70 
61 71 
61 81 
61 83 
61 87 
61 92 
61 107 
61 109 
61 115 
61 116 
61 122 
61 124 
61 126 
61 130 
61 131 
61 132 
61 134 
61 140 
61 141 
61 142 
62 63 
62 64 
62 65 
62 66 
62 67 
62 82 
62 91 
62 93 
62 97 
62 102 
62 107 
62 108 
62 117 
62 123 
62 126 
62 128 
62 133 
62 134 
62 135 
62 136 
62 139 
62 145 
62 148 
62 151 
63 64 
63 65 
63 66 
63 72 
63 76 
63 77 
63 78 
63 98 
63 100 
63 105 
63 112 
63 115 
63 127 
63 129 
63 133 
63 135 
63 137 
63 138 
63 139 
63 141 
63 147 
63 148 
63 153 
64 65 
64 66 
64 74 
64 75 
64 80 
64 85 
64 93 
64 100 
64 101 
64 111 
64 118 
64 119 
64 121 
64 125 
64 136 
64 140 
64 141 
64 144 
64 146 
64 148 
64 149 
64 150 
65 66 
65 73 
65 74 
65 82 
65 88 
65 94 
65 99 
65 103 
65 109 
65 113 
65 116 
65 125 
65 127 
65 130 
65 131 
65 139 
65 149 
65 150 
65 152 
65 153 
65 154 
66 72 
66 75 
66 83 
66 86 
66 89 
66 94 
66 104 
66 106 
66 111 
66 114 
66 120 
66 122 
66 132 
66 133 
66 142 
66 143 
66 144 
66 151 
66 153 
66 154 
67 68 
67 69 
67 70 
67 71 
67 72 
67 73 
67 74 
67 75 
67 76 
67 77 
67 78 
67 79 
67 80 
67 81 
67 82 
67 83 
67 84 
67 85 
67 86 
67 93 
67 102 
67 107 
67 117 
67 128 
67 139 
67 145 
67 148 
67 151 
68 69 
68 70 
68 71 
68 72 
68 73 
68 74 
68 75 
68 76 
68 78 
68 84 
68 90 
68 97 
68 110 
68 113 
68 114 
68 115 
68 116 
68 117 
68 118 
68 119 
68 120 
68 135 
68 137 
68 140 
68 143 
68 144 
68 145 
69 70 
69 71 
69 72 
69 73 
69 74 
69 75 
69 76 
69 79 
69 81 
69 89 
69 98 
69 101 
69 105 
69 110 
69 113 
69 121 
69 122 
69 123 
69 124 
69 125 
69 128 
69 136 
69 142 
69 147 
69 152 
69 154 
69 155 
70 71 
70 72 
70 73 
70 74 
70 75 
70 76 
70 80 
70 83 
70 90 
70 92 
70 99 
70 106 
70 109 
70 114 
70 116 
70 121 
70 124 
70 126 
70 127 
70 128 
70 129 
70 134 
70 140 
70 141 
70 142 
71 72 
71 73 
71 74 
71 75 
71 76 
71 81 
71 86 
71 87 
71 95 
71 102 
71 107 
71 108 
71 115 
71 118 
71 122 
71 124 
71 126 
71 129 
71 130 
71 131 
71 132 
71 137 
71 146 
71 152 
72 73 
72 74 
72 75 
72 76 
72 77 
72 86 
72 94 
72 100 
72 105 
72 106 
72 115 
72 120 
72 122 
72 127 
72 133 
72 137 
72 138 
72 139 
72 142 
72 144 
72 151 
72 153 
73 74 
73 75 
73 76 
73 79 
73 88 
73 91 
73 96 
73 99 
73 116 
73 117 
73 125 
73 130 
73 131 
73 138 
73 139 
73 143 
73 146 
73 147 
73 149 
73 153 
73 154 
74 75 
74 76 
74 82 
74 85 
74 94 
74 100 
74 103 
74 109 
74 111 
74 113 
74 118 
74 121 
74 127 
74 130 
74 136 
74 140 
74 148 
74 149 
74 150 
74 152 
75 76 
75 80 
75 83 
75 89 
75 93 
75 101 
75 104 
75 111 
75 114 
75 119 
75 125 
75 132 
75 133 
75 141 
75 143 
75 144 
75 146 
75 150 
75 154 
76 78 
76 85 
76 95 
76 98 
76 104 
76 112 
76 120 
76 129 
76 131 
76 134 
76 135 
76 138 
76 141 
76 145 
76 147 
76 148 
76 150 
76 153 
76 155 
77 78 
77 79 
77 80 
77 81 
77 82 
77 83 
77 84 
77 85 
77 86 
77 87 
77 88 
77 89 
77 90 
77 91 
77 92 
77 93 
77 94 
77 95 
77 100 
77 105 
77 115 
77 127 
77 133 
77 137 
77 138 
77 139 
78 79 
78 80 
78 81 
78 82 
78 83 
78 84 
78 85 
78 86 
78 97 
78 98 
78 112 
78 113 
78 114 
78 115 
78 116 
78 117 
78 118 
78 119 
78 120 
78 129 
78 135 
78 141 
78 147 
78 148 
78 153 
79 80 
79 81 
79 82 
79 83 
79 84 
79 85 
79 86 
79 89 
79 91 
79 96 
79 98 
79 105 
79 113 
79 117 
79 121 
79 122 
79 123 
79 124 
79 125 
79 130 
79 138 
79 143 
79 146 
79 147 
80 81 
80 82 
80 83 
80 84 
80 85 
80 86 
80 90 
80 93 
80 99 
80 101 
80 106 
80 114 
80 119 
80 121 
80 125 
80 126 
80 127 
80 128 
80 129 
80 141 
80 144 
80 146 
80 150 
81 82 
81 83 
81 84 
81 85 
81 86 
81 87 
81 101 
81 107 
81 110 
81 115 
81 122 
81 126 
81 128 
81 130 
81 131 
81 132 
81 136 
81 142 
81 147 
81 152 
81 154 
81 155 
82 83 
82 84 
82 85 
82 86 
82 91 
82 94 
82 97 
82 103 
82 108 
82 109 
82 113 
82 123 
82 126 
82 127 
82 130 
82 133 
82 134 
82 135 
82 136 
82 150 
82 152 
83 84 
83 85 
83 86 
83 89 
83 92 
83 104 
83 109 
83 111 
83 114 
83 116 
83 124 
83 132 
83 133 
83 134 
83 140 
83 141 
83 142 
83 143 
83 154 
84 85 
84 86 
84 90 
84 92 
84 103 
84 110 
84 112 
84 119 
84 123 
84 132 
84 135 
84 137 
84 140 
84 143 
84 144 
84 145 
84 149 
84 151 
84 155 
85 86 
85 95 
85 100 
85 104 
85 111 
85 118 
85 120 
85 121 
85 131 
85 134 
85 136 
85 138 
85 140 
85 145 
85 148 
85 149 
85 150 
85 155 
86 94 
86 95 
86 102 
86 106 
86 108 
86 118 
86 120 
86 122 
86 124 
86 129 
86 137 
86 142 
86 144 
86 146 
86 151 
86 152 
86 153 
87 88 
87 89 
87 90 
87 91 
87 92 
87 93 
87 94 
87 95 
87 96 
87 97 
87 98 
87 99 
87 100 
87 101 
87 102 
87 103 
87 104 
87 107 
87 115 
87 122 
87 126 
87 130 
87 131 
87 132 
88 89 
88 90 
88 91 
88 92 
88 93 
88 94 
88 95 
88 96 
88 99 
88 105 
88 106 
88 107 
88 108 
88 109 
88 110 
88 111 
88 112 
88 116 
88 125 
88 131 
88 139 
88 149 
88 153 
88 154 
89 90 
89 91 
89 92 
89 93 
89 94 
89 95 
89 98 
89 104 
89 105 
89 111 
89 113 
89 114 
89 121 
89 122 
89 123 
89 124 
89 125 
89 132 
89 133 
89 143 
89 154 
90 91 
90 92 
90 93 
90 94 
90 95 
90 99 
90 106 
90 110 
90 114 
90 121 
90 126 
90 127 
90 128 
90 129 
90 135 
90 137 
90 140 
90 143 
90 144 
90 145 
91 92 
91 93 
91 94 
91 95 
91 96 
91 97 
91 108 
91 117 
91 123 
91 126 
91 130 
91 133 
91 134 
91 135 
91 136 
91 138 
91 143 
91 146 
91 147 
92 93 
92 94 
92 95 
92 103 
92 109 
92 112 
92 116 
92 119 
92 123 
92 124 
92 132 
92 134 
92 140 
92 141 
92 142 
92 149 
92 151 
92 155 
93 94 
93 95 
93 101 
93 102 
93 107 
93 117 
93 119 
93 125 
93 128 
93 139 
93 141 
93 144 
93 145 
93 146 
93 148 
93 150 
93 151 
94 95 
94 103 
94 106 
94 109 
94 113 
94 120 
94 122 
94 127 
94 130 
94 142 
94 144 
94 150 
94 151 
94 152 
94 153 
95 102 
95 104 
95 108 
95 118 
95 120 
95 124 
95 129 
95 131 
95 134 
95 137 
95 138 
95 145 
95 146 
95 150 
95 152 
95 155 
96 97 
96 98 
96 99 
96 100 
96 101 
96 102 
96 103 
96 104 
96 105 
96 106 
96 107 
96 108 
96 109 
96 110 
96 111 
96 112 
96 117 
96 130 
96 138 
96 143 
96 146 
96 147 
97 98 
97 99 
97 100 
97 101 
97 102 
97 103 
97 104 
97 108 
97 113 
97 114 
97 115 
97 116 
97 117 
97 118 
97 119 
97 120 
97 123 
97 126 
97 133 
97 134 
97 135 
97 136 
98 99 
98 100 
98 101 
98 102 
98 103 
98 104 
98 105 
98 112 
98 113 
98 121 
98 122 
98 123 
98 124 
98 125 
98 129 
98 135 
98 141 
98 147 
98 148 
98 153 
99 100 
99 101 
99 102 
99 103 
99 104 
99 106 
99 114 
99 116 
99 121 
99 125 
99 126 
99 127 
99 128 
99 129 
99 131 
99 139 
99 149 
99 153 
99 154 
100 101 
100 102 
100 103 
100 104 
100 105 
100 111 
100 115 
100 118 
100 121 
100 127 
100 133 
100 136 
100 137 
100 138 
100 139 
100 140 
100 148 
100 149 
101 102 
101 103 
101 104 
101 110 
101 119 
101 125 
101 128 
101 136 
101 141 
101 142 
101 144 
101 146 
101 147 
101 150 
101 152 
101 154 
101 155 
102 103 
102 104 
102 107 
102 108 
102 117 
102 118 
102 124 
102 128 
102 129 
102 137 
102 139 
102 145 
102 146 
102 148 
102 151 
102 152 
103 104 
103 109 
103 112 
103 113 
103 119 
103 123 
103 127 
103 130 
103 132 
103 149 
103 150 
103 151 
103 152 
103 155 
104 111 
104 114 
104 120 
104 131 
104 132 
104 133 
104 134 
104 138 
104 143 
104 145 
104 150 
104 154 
104 155 
105 106 
105 107 
105 108 
105 109 
105 110 
105 111 
105 112 
105 113 
105 115 
105 121 
105 122 
105 123 
105 124 
105 125 
105 127 
105 133 
105 137 
105 138 
105 139 
106 107 
106 108 
106 109 
106 110 
106 111 
106 112 
106 114 
106 120 
106 121 
106 122 
106 126 
106 127 
106 128 
106 129 
106 142 
106 144 
106 151 
106 153 
107 108 
107 109 
107 110 
107 111 
107 112 
107 115 
107 117 
107 122 
107 126 
107 128 
107 130 
107 131 
107 132 
107 139 
107 145 
107 148 
107 151 
108 109 
108 110 
108 111 
108 112 
108 118 
108 123 
108 124 
108 126 
108 129 
108 133 
108 134 
108 135 
108 136 
108 137 
108 146 
108 152 
109 110 
109 111 
109 112 
109 113 
109 116 
109 124 
109 127 
109 130 
109 134 
109 140 
109 141 
109 142 
109 150 
109 152 
110 111 
110 112 
110 128 
110 135 
110 136 
110 137 
110 140 
110 142 
110 143 
110 144 
110 145 
110 147 
110 152 
110 154 
110 155 
111 112 
111 114 
111 118 
111 121 
111 132 
111 133 
111 136 
111 140 
111 143 
111 148 
111 149 
111 154 
112 119 
112 123 
112 129 
112 132 
112 135 
112 141 
112 147 
112 148 
112 149 
112 151 
112 153 
112 155 
113 114 
113 115 
113 116 
113 117 
113 118 
113 119 
113 120 
113 121 
113 122 
113 123 
113 124 
113 125 
113 127 
113 130 
113 150 
113 152 
114 115 
114 116 
114 117 
114 118 
114 119 
114 120 
114 121 
114 126 
114 127 
114 128 
114 129 
114 132 
114 133 
114 143 
114 154 
115 116 
115 117 
115 118 
115 119 
115 120 
115 122 
115 126 
115 127 
115 130 
115 131 
115 132 
115 133 
115 137 
115 138 
115 139 
116 117 
116 118 
116 119 
116 120 
116 124 
116 125 
116 131 
116 134 
116 139 
116 140 
116 141 
116 142 
116 149 
116 153 
116 154 
117 118 
117 119 
117 120 
117 128 
117 130 
117 138 
117 139 
117 143 
117 145 
117 146 
117 147 
117 148 
117 151 
118 119 
118 120 
118 121 
118 124 
118 129 
118 136 
118 137 
118 140 
118 146 
118 148 
118 149 
118 152 
119 120 
119 123 
119 125 
119 132 
119 141 
119 144 
119 146 
119 149 
119 150 
119 151 
119 155 
120 122 
120 131 
120 134 
120 138 
120 142 
120 144 
120 145 
120 150 
120 151 
120 153 
120 155 
121 122 
121 123 
121 124 
121 125 
121 126 
121 127 
121 128 
121 129 
121 136 
121 140 
121 148 
121 149 
122 123 
122 124 
122 125 
122 126 
122 130 
122 131 
122 132 
122 142 
122 144 
122 151 
122 153 
123 124 
123 125 
123 126 
123 132 
123 133 
123 134 
123 135 
123 136 
123 149 
123 151 
123 155 
124 125 
124 129 
124 134 
124 137 
124 140 
124 141 
124 142 
124 146 
124 152 
125 131 
125 139 
125 141 
125 144 
125 146 
125 149 
125 150 
125 153 
125 154 
126 127 
126 128 
126 129 
126 130 
126 131 
126 132 
126 133 
126 134 
126 135 
126 136 
127 128 
127 129 
127 130 
127 133 
127 137 
127 138 
127 139 
127 150 
127 152 
128 129 
128 136 
128 139 
128 142 
128 145 
128 147 
128 148 
128 151 
128 152 
128 154 
128 155 
129 135 
129 137 
129 141 
129 146 
129 147 
129 148 
129 152 
129 153 
130 131 
130 132 
130 138 
130 143 
130 146 
130 147 
130 150 
130 152 
131 132 
131 134 
131 138 
131 139 
131 145 
131 149 
131 150 
131 153 
131 154 
131 155 
132 133 
132 143 
132 149 
132 151 
132 154 
132 155 
133 134 
133 135 
133 136 
133 137 
133 138 
133 139 
133 143 
133 154 
134 135 
134 136 
134 138 
134 140 
134 141 
134 142 
134 145 
134 150 
134 155 
135 136 
135 137 
135 140 
135 141 
135 143 
135 144 
135 145 
135 147 
135 148 
135 153 
136 140 
136 142 
136 147 
136 148 
136 149 
136 152 
136 154 
136 155 
137 138 
137 139 
137 140 
137 143 
137 144 
137 145 
137 146 
137 152 
138 139 
138 143 
138 145 
138 146 
138 147 
138 150 
138 155 
139 145 
139 148 
139 149 
139 151 
139 153 
139 154 
140 141 
140 142 
140 143 
140 144 
140 145 
140 148 
140 149 
141 142 
141 144 
141 146 
141 147 
141 148 
141 150 
141 153 
142 144 
142 147 
142 151 
142 152 
142 153 
142 154 
142 155 
143 144 
143 145 
143 146 
143 147 
143 154 
144 145 
144 146 
144 150 
144 151 
144 153 
145 148 
145 150 
145 151 
145 155 
146 147 
146 150 
146 152 
147 148 
147 152 
147 153 
147 154 
147 155 
148 149 
148 151 
148 153 
149 151 
149 153 
149 154 
149 155 
150 152 
150 155 
151 153 
151 155 
152 154 
152 155 
153 154 
154 155 
